ilp_joint_2/output/pollination_ilp.lp
Maximize
  3.0563151518586684e-04 Z_130_1_0 + 0.00346132167190433 Z_130_1_1
   + 0.4858447348827147 Z_130_1_2 + 0.00424317919161689 Z_130_1_3
Subject To
 constraint1_1301: Z_130_1_0 + Z_130_1_1 + Z_130_1_2 + Z_130_1_3 <= 1
 constraint2_1300: Z_130_1_0 <= 1
 constraint2_1301: Z_130_1_1 <= 1
 constraint2_1302: Z_130_1_2 <= 1
 constraint2_1303: Z_130_1_3 <= 1
Bounds
Binaries
 Z_130_1_0 Z_130_1_1 Z_130_1_2 Z_130_1_3
End
