ilp_joint_2/output/pollination_ilp.sol
# Solution for model pollination_srl_ilp
# Objective value = 4.8584473488271468e-01
Z_130_1_0 0
Z_130_1_1 0
Z_130_1_2 1
Z_130_1_3 0
